1678
8 45 17 9 54 69 32 70 21 84 16 89 1 12 51 5 36 34 95 62 68 20 41 15 3 11 76 46 90 64 28 87 18 30 44 78 39 7 60 97 73 19 10 14 47 66 59 86 29 33 79 82 13 98 53 40 99 65 77 42 37 27 91 52 38 6 63 92 22 58 50 85 57 4 26 56 24 75 93 35 72 31 71 81 94 74 49 55 83 67 96 2 80 23 25 43 61 88 48 
